Minimize
r
Subject to
x111 +x121 +x131 +x141 = 2
x112 +x122 +x132 +x142 = 3
x113 +x123 +x133 +x143 = 4
x114 +x124 +x134 +x144 = 5
x211 +x221 +x231 +x241 = 3
x212 +x222 +x232 +x242 = 4
x213 +x223 +x233 +x243 = 5
x214 +x224 +x234 +x244 = 6
x311 +x321 +x331 +x341 = 4
x312 +x322 +x332 +x342 = 5
x313 +x323 +x333 +x343 = 6
x314 +x324 +x334 +x344 = 7
u111 +u121 +u131 +u141 = 3.0
u112 +u122 +u132 +u142 = 3.0
u113 +u123 +u133 +u143 = 3.0
u114 +u124 +u134 +u144 = 3.0
u211 +u221 +u231 +u241 = 3.0
u212 +u222 +u232 +u242 = 3.0
u213 +u223 +u233 +u243 = 3.0
u214 +u224 +u234 +u244 = 3.0
u311 +u321 +u331 +u341 = 3.0
u312 +u322 +u332 +u342 = 3.0
u313 +u323 +u333 +u343 = 3.0
u314 +u324 +u334 +u344 = 3.0
3 x111 - 2 u111 = 0
3 x121 - 2 u121 = 0
3 x131 - 2 u131 = 0
3 x141 - 2 u141 = 0
3 x112 - 3 u112 = 0
3 x122 - 3 u122 = 0
3 x132 - 3 u132 = 0
3 x142 - 3 u142 = 0
3 x113 - 4 u113 = 0
3 x123 - 4 u123 = 0
3 x133 - 4 u133 = 0
3 x143 - 4 u143 = 0
3 x114 - 5 u114 = 0
3 x124 - 5 u124 = 0
3 x134 - 5 u134 = 0
3 x144 - 5 u144 = 0
3 x211 - 3 u211 = 0
3 x221 - 3 u221 = 0
3 x231 - 3 u231 = 0
3 x241 - 3 u241 = 0
3 x212 - 4 u212 = 0
3 x222 - 4 u222 = 0
3 x232 - 4 u232 = 0
3 x242 - 4 u242 = 0
3 x213 - 5 u213 = 0
3 x223 - 5 u223 = 0
3 x233 - 5 u233 = 0
3 x243 - 5 u243 = 0
3 x214 - 6 u214 = 0
3 x224 - 6 u224 = 0
3 x234 - 6 u234 = 0
3 x244 - 6 u244 = 0
3 x311 - 4 u311 = 0
3 x321 - 4 u321 = 0
3 x331 - 4 u331 = 0
3 x341 - 4 u341 = 0
3 x312 - 5 u312 = 0
3 x322 - 5 u322 = 0
3 x332 - 5 u332 = 0
3 x342 - 5 u342 = 0
3 x313 - 6 u313 = 0
3 x323 - 6 u323 = 0
3 x333 - 6 u333 = 0
3 x343 - 6 u343 = 0
3 x314 - 7 u314 = 0
3 x324 - 7 u324 = 0
3 x334 - 7 u334 = 0
3 x344 - 7 u344 = 0
x111 +x112 +x113 +x114 -c11 <= 0
x121 +x122 +x123 +x124 -c12 <= 0
x131 +x132 +x133 +x134 -c13 <= 0
x141 +x142 +x143 +x144 -c14 <= 0
x211 +x212 +x213 +x214 -c21 <= 0
x221 +x222 +x223 +x224 -c22 <= 0
x231 +x232 +x233 +x234 -c23 <= 0
x241 +x242 +x243 +x244 -c24 <= 0
x311 +x312 +x313 +x314 -c31 <= 0
x321 +x322 +x323 +x324 -c32 <= 0
x331 +x332 +x333 +x334 -c33 <= 0
x341 +x342 +x343 +x344 -c34 <= 0
x111 +x211 +x311 -d11 <= 0
x112 +x212 +x312 -d12 <= 0
x113 +x213 +x313 -d13 <= 0
x114 +x214 +x314 -d14 <= 0
x121 +x221 +x321 -d21 <= 0
x122 +x222 +x322 -d22 <= 0
x123 +x223 +x323 -d23 <= 0
x124 +x224 +x324 -d24 <= 0
x131 +x231 +x331 -d31 <= 0
x132 +x232 +x332 -d32 <= 0
x133 +x233 +x333 -d33 <= 0
x134 +x234 +x334 -d34 <= 0
x141 +x241 +x341 -d41 <= 0
x142 +x242 +x342 -d42 <= 0
x143 +x243 +x343 -d43 <= 0
x144 +x244 +x344 -d44 <= 0
x111+x112+x113+x114+x211+x212+x213+x214+x311+x312+x313+x314-r <= 0
x121+x122+x123+x124+x221+x222+x223+x224+x321+x322+x323+x324-r <= 0
x131+x132+x133+x134+x231+x232+x233+x234+x331+x332+x333+x334-r <= 0
x141+x142+x143+x144+x241+x242+x243+x244+x341+x342+x343+x344-r <= 0
Bounds 
0 <= x132
0 <= x313
0 <= x334
0 <= x214
0 <= x122
0 <= x133
0 <= x211
0 <= x234
0 <= x212
0 <= x331
0 <= x341
0 <= x121
0 <= x113
0 <= x124
0 <= x222
0 <= x312
0 <= x134
0 <= x333
0 <= x244
0 <= x143
0 <= x241
0 <= x344
0 <= x343
0 <= x314
0 <= x142
0 <= x131
0 <= x144
0 <= x342
0 <= x242
0 <= x311
0 <= x114
0 <= x233
0 <= x243
0 <= x321
0 <= x221
0 <= x324
0 <= x322
0 <= x112
0 <= x223
0 <= x213
0 <= x141
0 <= x123
0 <= x231
0 <= x332
0 <= x232
0 <= x323
0 <= x224
0 <= x111
0 <= r
Binary
u222
u314
u133
u144
u223
u123
u332
u121
u334
u231
u342
u312
u234
u311
u213
u224
u214
u143
u321
u324
u313
u323
u233
u134
u242
u211
u132
u243
u333
u322
u241
u244
u344
u141
u212
u341
u124
u331
u232
u343
u112
u131
u122
u113
u114
u111
u142
u221
END